(set-logic CHC_LIA)

(set-info :source CHC Constraint Logic: QF_LIA Contains non-linear Horn clauses: false)
(synth-fun ULTIMATE.start_L21 ((x_0 Int) (x_1 Int) (x_2 Int) (x_3 Int) (x_4 Bool)) Bool)

(synth-fun ULTIMATE.start_L6 ((x_0 Int) (x_1 Int) (x_2 Int) (x_3 Int) (x_4 Bool)) Bool)

(synth-fun ULTIMATE.start_ULTIMATE.startFINAL ((x_0 Int) (x_1 Int) (x_2 Int) (x_3 Int) (x_4 Bool)) Bool)

(synth-fun ULTIMATE.start_L4 ((x_0 Int) (x_1 Int) (x_2 Int) (x_3 Int) (x_4 Bool)) Bool)

(synth-fun ULTIMATE.start_L16 ((x_0 Int) (x_1 Int) (x_2 Int) (x_3 Int) (x_4 Bool)) Bool)

(synth-fun ULTIMATE.start_ULTIMATE.startENTRY ((x_0 Int) (x_1 Int) (x_2 Int) (x_3 Int) (x_4 Bool)) Bool)

(synth-fun ULTIMATE.start_L13-2 ((x_0 Int) (x_1 Int) (x_2 Int) (x_3 Int) (x_4 Bool)) Bool)

(synth-fun ULTIMATE.start_ULTIMATE.startEXIT ((x_0 Int) (x_1 Int) (x_2 Int) (x_3 Int) (x_4 Bool)) Bool)

(constraint (forall ((hhv_ULTIMATE.start_L4_0_Int Int) (hhv_ULTIMATE.start_L4_1_Int Int) (hhv_ULTIMATE.start_L4_2_Int Int) (hhv_ULTIMATE.start_L4_3_Int Int) (hhv_ULTIMATE.start_L4_4_Bool Bool) (hbv_ULTIMATE.start_ULTIMATE.startENTRY_0_Int Int) (hbv_ULTIMATE.start_ULTIMATE.startENTRY_1_Int Int) (hbv_ULTIMATE.start_ULTIMATE.startENTRY_2_Int Int) (hbv_ULTIMATE.start_ULTIMATE.startENTRY_3_Int Int) (hbv_ULTIMATE.start_ULTIMATE.startENTRY_4_Bool Bool)) (=> (and (ULTIMATE.start_ULTIMATE.startENTRY hhv_ULTIMATE.start_L4_0_Int hbv_ULTIMATE.start_ULTIMATE.startENTRY_1_Int hbv_ULTIMATE.start_ULTIMATE.startENTRY_2_Int hbv_ULTIMATE.start_ULTIMATE.startENTRY_3_Int hhv_ULTIMATE.start_L4_4_Bool) (or (= hhv_ULTIMATE.start_L4_2_Int 0) hhv_ULTIMATE.start_L4_4_Bool)) (ULTIMATE.start_L4 hhv_ULTIMATE.start_L4_0_Int hhv_ULTIMATE.start_L4_1_Int hhv_ULTIMATE.start_L4_2_Int hhv_ULTIMATE.start_L4_3_Int hhv_ULTIMATE.start_L4_4_Bool))))
(constraint (forall ((hhv_ULTIMATE.start_L13-2_0_Int Int) (hhv_ULTIMATE.start_L13-2_1_Int Int) (hhv_ULTIMATE.start_L13-2_2_Int Int) (hhv_ULTIMATE.start_L13-2_3_Int Int) (hhv_ULTIMATE.start_L13-2_4_Bool Bool) (hbv_ULTIMATE.start_L4_0_Int Int) (hbv_ULTIMATE.start_L4_1_Int Int) (hbv_ULTIMATE.start_L4_2_Int Int) (hbv_ULTIMATE.start_L4_3_Int Int) (hbv_ULTIMATE.start_L4_4_Bool Bool)) (=> (and (ULTIMATE.start_L4 hhv_ULTIMATE.start_L13-2_0_Int hhv_ULTIMATE.start_L13-2_1_Int hhv_ULTIMATE.start_L13-2_2_Int hhv_ULTIMATE.start_L13-2_3_Int hhv_ULTIMATE.start_L13-2_4_Bool) hhv_ULTIMATE.start_L13-2_4_Bool) (ULTIMATE.start_L13-2 hhv_ULTIMATE.start_L13-2_0_Int hhv_ULTIMATE.start_L13-2_1_Int hhv_ULTIMATE.start_L13-2_2_Int hhv_ULTIMATE.start_L13-2_3_Int hhv_ULTIMATE.start_L13-2_4_Bool))))
(constraint (forall ((hhv_ULTIMATE.start_L13-2_0_Int Int) (hhv_ULTIMATE.start_L13-2_1_Int Int) (hhv_ULTIMATE.start_L13-2_2_Int Int) (hhv_ULTIMATE.start_L13-2_3_Int Int) (hhv_ULTIMATE.start_L13-2_4_Bool Bool) (hbv_ULTIMATE.start_L4_0_Int Int) (hbv_ULTIMATE.start_L4_1_Int Int) (hbv_ULTIMATE.start_L4_2_Int Int) (hbv_ULTIMATE.start_L4_3_Int Int) (hbv_ULTIMATE.start_L4_4_Bool Bool)) (=> (and (ULTIMATE.start_L4 hhv_ULTIMATE.start_L13-2_0_Int hhv_ULTIMATE.start_L13-2_1_Int hhv_ULTIMATE.start_L13-2_2_Int hhv_ULTIMATE.start_L13-2_3_Int hhv_ULTIMATE.start_L13-2_4_Bool) (or (not (< hhv_ULTIMATE.start_L13-2_2_Int 5)) hhv_ULTIMATE.start_L13-2_4_Bool)) (ULTIMATE.start_L13-2 hhv_ULTIMATE.start_L13-2_0_Int hhv_ULTIMATE.start_L13-2_1_Int hhv_ULTIMATE.start_L13-2_2_Int hhv_ULTIMATE.start_L13-2_3_Int hhv_ULTIMATE.start_L13-2_4_Bool))))
(constraint (forall ((hhv_ULTIMATE.start_L16_0_Int Int) (hhv_ULTIMATE.start_L16_1_Int Int) (hhv_ULTIMATE.start_L16_2_Int Int) (hhv_ULTIMATE.start_L16_3_Int Int) (hhv_ULTIMATE.start_L16_4_Bool Bool) (hbv_ULTIMATE.start_L4_0_Int Int) (hbv_ULTIMATE.start_L4_1_Int Int) (hbv_ULTIMATE.start_L4_2_Int Int) (hbv_ULTIMATE.start_L4_3_Int Int) (hbv_ULTIMATE.start_L4_4_Bool Bool)) (=> (and (or hhv_ULTIMATE.start_L16_4_Bool (and (= (+ hbv_ULTIMATE.start_L4_2_Int 1) hhv_ULTIMATE.start_L16_2_Int) (< hbv_ULTIMATE.start_L4_2_Int 5))) (ULTIMATE.start_L4 hhv_ULTIMATE.start_L16_0_Int hhv_ULTIMATE.start_L16_1_Int hbv_ULTIMATE.start_L4_2_Int hbv_ULTIMATE.start_L4_3_Int hhv_ULTIMATE.start_L16_4_Bool)) (ULTIMATE.start_L16 hhv_ULTIMATE.start_L16_0_Int hhv_ULTIMATE.start_L16_1_Int hhv_ULTIMATE.start_L16_2_Int hhv_ULTIMATE.start_L16_3_Int hhv_ULTIMATE.start_L16_4_Bool))))
(constraint (forall ((hhv_ULTIMATE.start_L21_0_Int Int) (hhv_ULTIMATE.start_L21_1_Int Int) (hhv_ULTIMATE.start_L21_2_Int Int) (hhv_ULTIMATE.start_L21_3_Int Int) (hhv_ULTIMATE.start_L21_4_Bool Bool) (hbv_ULTIMATE.start_L13-2_0_Int Int) (hbv_ULTIMATE.start_L13-2_1_Int Int) (hbv_ULTIMATE.start_L13-2_2_Int Int) (hbv_ULTIMATE.start_L13-2_3_Int Int) (hbv_ULTIMATE.start_L13-2_4_Bool Bool)) (=> (and (or hhv_ULTIMATE.start_L21_4_Bool (= hhv_ULTIMATE.start_L21_1_Int 0)) (ULTIMATE.start_L13-2 hhv_ULTIMATE.start_L21_0_Int hbv_ULTIMATE.start_L13-2_1_Int hhv_ULTIMATE.start_L21_2_Int hhv_ULTIMATE.start_L21_3_Int hhv_ULTIMATE.start_L21_4_Bool)) (ULTIMATE.start_L21 hhv_ULTIMATE.start_L21_0_Int hhv_ULTIMATE.start_L21_1_Int hhv_ULTIMATE.start_L21_2_Int hhv_ULTIMATE.start_L21_3_Int hhv_ULTIMATE.start_L21_4_Bool))))
(constraint (forall ((hhv_ULTIMATE.start_L4_0_Int Int) (hhv_ULTIMATE.start_L4_1_Int Int) (hhv_ULTIMATE.start_L4_2_Int Int) (hhv_ULTIMATE.start_L4_3_Int Int) (hhv_ULTIMATE.start_L4_4_Bool Bool) (hbv_ULTIMATE.start_L16_0_Int Int) (hbv_ULTIMATE.start_L16_1_Int Int) (hbv_ULTIMATE.start_L16_2_Int Int) (hbv_ULTIMATE.start_L16_3_Int Int) (hbv_ULTIMATE.start_L16_4_Bool Bool)) (=> (and (or (not (= 3 hhv_ULTIMATE.start_L4_2_Int)) hhv_ULTIMATE.start_L4_4_Bool) (ULTIMATE.start_L16 hhv_ULTIMATE.start_L4_0_Int hhv_ULTIMATE.start_L4_1_Int hhv_ULTIMATE.start_L4_2_Int hhv_ULTIMATE.start_L4_3_Int hhv_ULTIMATE.start_L4_4_Bool)) (ULTIMATE.start_L4 hhv_ULTIMATE.start_L4_0_Int hhv_ULTIMATE.start_L4_1_Int hhv_ULTIMATE.start_L4_2_Int hhv_ULTIMATE.start_L4_3_Int hhv_ULTIMATE.start_L4_4_Bool))))
(constraint (forall ((hhv_ULTIMATE.start_L6_0_Int Int) (hhv_ULTIMATE.start_L6_1_Int Int) (hhv_ULTIMATE.start_L6_2_Int Int) (hhv_ULTIMATE.start_L6_3_Int Int) (hhv_ULTIMATE.start_L6_4_Bool Bool) (hbv_ULTIMATE.start_L16_0_Int Int) (hbv_ULTIMATE.start_L16_1_Int Int) (hbv_ULTIMATE.start_L16_2_Int Int) (hbv_ULTIMATE.start_L16_3_Int Int) (hbv_ULTIMATE.start_L16_4_Bool Bool)) (=> (and (ULTIMATE.start_L16 hhv_ULTIMATE.start_L6_0_Int hhv_ULTIMATE.start_L6_1_Int hhv_ULTIMATE.start_L6_2_Int hhv_ULTIMATE.start_L6_3_Int hhv_ULTIMATE.start_L6_4_Bool) (or (= 3 hhv_ULTIMATE.start_L6_2_Int) hhv_ULTIMATE.start_L6_4_Bool)) (ULTIMATE.start_L6 hhv_ULTIMATE.start_L6_0_Int hhv_ULTIMATE.start_L6_1_Int hhv_ULTIMATE.start_L6_2_Int hhv_ULTIMATE.start_L6_3_Int hhv_ULTIMATE.start_L6_4_Bool))))
(constraint (forall ((hhv_ULTIMATE.start_ULTIMATE.startFINAL_0_Int Int) (hhv_ULTIMATE.start_ULTIMATE.startFINAL_1_Int Int) (hhv_ULTIMATE.start_ULTIMATE.startFINAL_2_Int Int) (hhv_ULTIMATE.start_ULTIMATE.startFINAL_3_Int Int) (hhv_ULTIMATE.start_ULTIMATE.startFINAL_4_Bool Bool) (hbv_ULTIMATE.start_L21_0_Int Int) (hbv_ULTIMATE.start_L21_1_Int Int) (hbv_ULTIMATE.start_L21_2_Int Int) (hbv_ULTIMATE.start_L21_3_Int Int) (hbv_ULTIMATE.start_L21_4_Bool Bool)) (=> (and (ULTIMATE.start_L21 hbv_ULTIMATE.start_L21_0_Int hhv_ULTIMATE.start_ULTIMATE.startFINAL_1_Int hhv_ULTIMATE.start_ULTIMATE.startFINAL_2_Int hhv_ULTIMATE.start_ULTIMATE.startFINAL_3_Int hhv_ULTIMATE.start_ULTIMATE.startFINAL_4_Bool) (or (= hhv_ULTIMATE.start_ULTIMATE.startFINAL_0_Int hhv_ULTIMATE.start_ULTIMATE.startFINAL_1_Int) hhv_ULTIMATE.start_ULTIMATE.startFINAL_4_Bool)) (ULTIMATE.start_ULTIMATE.startFINAL hhv_ULTIMATE.start_ULTIMATE.startFINAL_0_Int hhv_ULTIMATE.start_ULTIMATE.startFINAL_1_Int hhv_ULTIMATE.start_ULTIMATE.startFINAL_2_Int hhv_ULTIMATE.start_ULTIMATE.startFINAL_3_Int hhv_ULTIMATE.start_ULTIMATE.startFINAL_4_Bool))))
(constraint (forall ((hhv_ULTIMATE.start_ULTIMATE.startEXIT_0_Int Int) (hhv_ULTIMATE.start_ULTIMATE.startEXIT_1_Int Int) (hhv_ULTIMATE.start_ULTIMATE.startEXIT_2_Int Int) (hhv_ULTIMATE.start_ULTIMATE.startEXIT_3_Int Int) (hhv_ULTIMATE.start_ULTIMATE.startEXIT_4_Bool Bool) (hbv_ULTIMATE.start_L6_0_Int Int) (hbv_ULTIMATE.start_L6_1_Int Int) (hbv_ULTIMATE.start_L6_2_Int Int) (hbv_ULTIMATE.start_L6_3_Int Int) (hbv_ULTIMATE.start_L6_4_Bool Bool)) (=> (and (ULTIMATE.start_L6 hhv_ULTIMATE.start_ULTIMATE.startEXIT_0_Int hhv_ULTIMATE.start_ULTIMATE.startEXIT_1_Int hhv_ULTIMATE.start_ULTIMATE.startEXIT_2_Int hhv_ULTIMATE.start_ULTIMATE.startEXIT_3_Int hbv_ULTIMATE.start_L6_4_Bool) hhv_ULTIMATE.start_ULTIMATE.startEXIT_4_Bool) (ULTIMATE.start_ULTIMATE.startEXIT hhv_ULTIMATE.start_ULTIMATE.startEXIT_0_Int hhv_ULTIMATE.start_ULTIMATE.startEXIT_1_Int hhv_ULTIMATE.start_ULTIMATE.startEXIT_2_Int hhv_ULTIMATE.start_ULTIMATE.startEXIT_3_Int hhv_ULTIMATE.start_ULTIMATE.startEXIT_4_Bool))))
(constraint (forall ((hhv_ULTIMATE.start_L4_0_Int Int) (hhv_ULTIMATE.start_L4_1_Int Int) (hhv_ULTIMATE.start_L4_2_Int Int) (hhv_ULTIMATE.start_L4_3_Int Int) (hhv_ULTIMATE.start_L4_4_Bool Bool) (hbv_ULTIMATE.start_L6_0_Int Int) (hbv_ULTIMATE.start_L6_1_Int Int) (hbv_ULTIMATE.start_L6_2_Int Int) (hbv_ULTIMATE.start_L6_3_Int Int) (hbv_ULTIMATE.start_L6_4_Bool Bool)) (=> (and hhv_ULTIMATE.start_L4_4_Bool (ULTIMATE.start_L6 hhv_ULTIMATE.start_L4_0_Int hhv_ULTIMATE.start_L4_1_Int hhv_ULTIMATE.start_L4_2_Int hhv_ULTIMATE.start_L4_3_Int hhv_ULTIMATE.start_L4_4_Bool)) (ULTIMATE.start_L4 hhv_ULTIMATE.start_L4_0_Int hhv_ULTIMATE.start_L4_1_Int hhv_ULTIMATE.start_L4_2_Int hhv_ULTIMATE.start_L4_3_Int hhv_ULTIMATE.start_L4_4_Bool))))
(constraint (forall ((hhv_ULTIMATE.start_ULTIMATE.startEXIT_0_Int Int) (hhv_ULTIMATE.start_ULTIMATE.startEXIT_1_Int Int) (hhv_ULTIMATE.start_ULTIMATE.startEXIT_2_Int Int) (hhv_ULTIMATE.start_ULTIMATE.startEXIT_3_Int Int) (hhv_ULTIMATE.start_ULTIMATE.startEXIT_4_Bool Bool) (hbv_ULTIMATE.start_ULTIMATE.startFINAL_0_Int Int) (hbv_ULTIMATE.start_ULTIMATE.startFINAL_1_Int Int) (hbv_ULTIMATE.start_ULTIMATE.startFINAL_2_Int Int) (hbv_ULTIMATE.start_ULTIMATE.startFINAL_3_Int Int) (hbv_ULTIMATE.start_ULTIMATE.startFINAL_4_Bool Bool)) (=> (ULTIMATE.start_ULTIMATE.startFINAL hhv_ULTIMATE.start_ULTIMATE.startEXIT_0_Int hhv_ULTIMATE.start_ULTIMATE.startEXIT_1_Int hhv_ULTIMATE.start_ULTIMATE.startEXIT_2_Int hhv_ULTIMATE.start_ULTIMATE.startEXIT_3_Int hhv_ULTIMATE.start_ULTIMATE.startEXIT_4_Bool) (ULTIMATE.start_ULTIMATE.startEXIT hhv_ULTIMATE.start_ULTIMATE.startEXIT_0_Int hhv_ULTIMATE.start_ULTIMATE.startEXIT_1_Int hhv_ULTIMATE.start_ULTIMATE.startEXIT_2_Int hhv_ULTIMATE.start_ULTIMATE.startEXIT_3_Int hhv_ULTIMATE.start_ULTIMATE.startEXIT_4_Bool))))
(constraint (forall ((hhv_ULTIMATE.start_ULTIMATE.startENTRY_0_Int Int) (hhv_ULTIMATE.start_ULTIMATE.startENTRY_1_Int Int) (hhv_ULTIMATE.start_ULTIMATE.startENTRY_2_Int Int) (hhv_ULTIMATE.start_ULTIMATE.startENTRY_3_Int Int) (hhv_ULTIMATE.start_ULTIMATE.startENTRY_4_Bool Bool)) (=> (not hhv_ULTIMATE.start_ULTIMATE.startENTRY_4_Bool) (ULTIMATE.start_ULTIMATE.startENTRY hhv_ULTIMATE.start_ULTIMATE.startENTRY_0_Int hhv_ULTIMATE.start_ULTIMATE.startENTRY_1_Int hhv_ULTIMATE.start_ULTIMATE.startENTRY_2_Int hhv_ULTIMATE.start_ULTIMATE.startENTRY_3_Int hhv_ULTIMATE.start_ULTIMATE.startENTRY_4_Bool))))
(constraint (forall ((hbv_ULTIMATE.start_ULTIMATE.startEXIT_0_Int Int) (hbv_ULTIMATE.start_ULTIMATE.startEXIT_1_Int Int) (hbv_ULTIMATE.start_ULTIMATE.startEXIT_2_Int Int) (hbv_ULTIMATE.start_ULTIMATE.startEXIT_3_Int Int) (hbv_ULTIMATE.start_ULTIMATE.startEXIT_4_Bool Bool)) (=> (and hbv_ULTIMATE.start_ULTIMATE.startEXIT_4_Bool (ULTIMATE.start_ULTIMATE.startEXIT hbv_ULTIMATE.start_ULTIMATE.startEXIT_0_Int hbv_ULTIMATE.start_ULTIMATE.startEXIT_1_Int hbv_ULTIMATE.start_ULTIMATE.startEXIT_2_Int hbv_ULTIMATE.start_ULTIMATE.startEXIT_3_Int hbv_ULTIMATE.start_ULTIMATE.startEXIT_4_Bool)) false)))

(check-synth)

